50

95 38 288
88 5 410
88 19 288
86 31 433
85 26 303
84 30 269
84 5 363
82 10 401
81 30 354
79 12 353
72 18 221
71 30 256
69 16 414
69 24 393
69 15 242
68 15 290
68 11 386
65 16 303
61 22 398
61 7 362
61 3 243
61 15 354
60 22 330
58 21 414
57 6 437
57 2 308
53 11 323
44 19 312
43 22 262
36 16 438
29 1 405
29 13 371
27 4 335
23 1 448
23 2 132
22 7 432
21 10 80
17 2 148
14 4 420
14 6 220
14 5 96
13 7 444
12 3 196
11 3 427
11 1 378
6 2 125
5 3 263
3 2 90
3 1 197
2 1 376
